% Graph Number 3 , Number Of Nodes 100 , Number Of Edges = 2307
100 100 2307
3 1
4 3
5 2
6 1
6 2
6 4
7 1
7 3
7 5
8 1
8 2
8 3
8 4
8 6
8 7
9 1
9 3
9 4
9 6
9 7
10 2
10 3
10 6
10 8
10 9
11 3
11 4
11 5
11 6
11 9
11 10
12 1
12 2
12 3
12 5
12 9
12 10
12 11
13 3
13 4
13 6
13 9
13 11
13 12
14 1
14 2
14 3
14 7
14 10
15 4
15 7
15 8
15 9
15 13
15 14
16 3
16 6
16 12
16 13
17 2
17 5
17 6
17 7
17 8
17 10
17 14
17 16
18 1
18 2
18 3
18 4
18 10
18 11
18 12
18 13
18 15
19 4
19 11
19 15
19 16
19 17
19 18
20 1
20 2
20 5
20 6
20 7
20 9
20 16
20 18
20 19
21 1
21 3
21 4
21 5
21 11
21 12
21 15
21 17
21 18
21 19
21 20
22 1
22 3
22 4
22 7
22 8
22 9
22 10
22 11
22 13
22 14
22 15
22 16
22 17
22 21
23 2
23 3
23 4
23 6
23 7
23 8
23 9
23 10
23 17
23 21
23 22
24 1
24 2
24 4
24 11
24 14
24 15
24 19
24 20
24 22
24 23
25 2
25 6
25 9
25 12
25 13
25 15
25 20
25 24
26 1
26 5
26 6
26 9
26 10
26 15
26 17
26 20
26 21
26 23
26 25
27 3
27 6
27 9
27 11
27 13
27 16
27 20
27 21
27 24
27 26
28 1
28 4
28 9
28 11
28 12
28 13
28 14
28 15
28 18
28 19
28 22
29 2
29 4
29 7
29 8
29 9
29 10
29 14
29 16
29 23
29 26
29 27
29 28
30 1
30 3
30 5
30 9
30 10
30 13
30 15
30 20
30 23
30 27
30 28
31 1
31 4
31 7
31 11
31 15
31 16
31 18
31 19
31 23
31 28
32 5
32 16
32 18
32 27
32 29
33 2
33 3
33 4
33 5
33 7
33 8
33 9
33 10
33 11
33 12
33 13
33 16
33 18
33 20
33 22
33 25
33 28
33 30
33 31
34 2
34 4
34 6
34 10
34 11
34 13
34 15
34 16
34 17
34 18
34 20
34 22
34 23
34 25
34 27
34 30
34 31
34 32
35 4
35 5
35 6
35 7
35 8
35 11
35 12
35 16
35 19
35 20
35 24
35 27
35 30
35 32
35 33
36 5
36 6
36 7
36 8
36 11
36 14
36 16
36 20
36 21
36 24
36 26
36 33
36 34
36 35
37 2
37 3
37 4
37 6
37 7
37 15
37 17
37 18
37 19
37 20
37 22
37 25
37 28
37 31
37 32
37 33
37 35
38 2
38 8
38 10
38 11
38 12
38 13
38 14
38 15
38 16
38 17
38 18
38 20
38 21
38 26
38 28
38 29
38 31
38 33
39 1
39 4
39 5
39 6
39 9
39 11
39 14
39 15
39 16
39 19
39 22
39 23
39 25
39 26
39 27
39 31
39 36
39 37
40 1
40 2
40 3
40 4
40 14
40 18
40 19
40 20
40 22
40 23
40 24
40 25
40 26
40 27
40 30
40 33
40 34
40 36
40 37
40 38
41 4
41 5
41 7
41 10
41 11
41 12
41 13
41 15
41 16
41 18
41 22
41 25
41 26
41 28
41 30
41 31
41 34
41 35
41 39
42 1
42 2
42 4
42 5
42 6
42 8
42 9
42 12
42 13
42 16
42 17
42 22
42 25
42 26
42 27
42 30
42 33
42 35
42 37
42 39
42 40
43 2
43 4
43 5
43 6
43 7
43 8
43 9
43 10
43 11
43 15
43 16
43 23
43 24
43 30
43 36
43 37
43 40
44 1
44 2
44 3
44 7
44 8
44 11
44 14
44 15
44 16
44 18
44 19
44 21
44 22
44 27
44 29
44 31
44 35
44 36
44 37
44 39
44 40
44 42
45 1
45 4
45 5
45 8
45 9
45 10
45 13
45 14
45 17
45 18
45 19
45 20
45 21
45 23
45 24
45 29
45 30
45 31
45 35
45 36
45 37
45 38
45 41
45 42
45 43
45 44
46 3
46 4
46 5
46 7
46 8
46 10
46 11
46 12
46 15
46 17
46 20
46 22
46 23
46 25
46 26
46 29
46 30
46 32
46 35
46 39
46 41
46 43
46 45
47 1
47 7
47 9
47 14
47 16
47 17
47 22
47 24
47 27
47 28
47 33
47 35
47 36
47 42
47 45
47 46
48 1
48 2
48 3
48 4
48 8
48 9
48 10
48 12
48 13
48 14
48 16
48 23
48 24
48 25
48 27
48 29
48 32
48 33
48 35
48 37
48 38
48 39
48 45
49 2
49 6
49 8
49 10
49 15
49 16
49 20
49 21
49 24
49 25
49 27
49 29
49 33
49 35
49 36
49 40
49 44
49 45
50 1
50 3
50 7
50 10
50 13
50 14
50 15
50 17
50 18
50 20
50 23
50 24
50 26
50 27
50 28
50 29
50 31
50 33
50 34
50 36
50 39
50 40
50 41
50 43
50 45
50 47
51 2
51 3
51 5
51 8
51 14
51 15
51 17
51 18
51 23
51 25
51 27
51 28
51 29
51 30
51 31
51 32
51 33
51 34
51 35
51 37
51 38
51 39
51 40
51 42
51 43
51 44
51 50
52 5
52 8
52 9
52 10
52 13
52 14
52 19
52 24
52 27
52 30
52 31
52 33
52 36
52 43
52 44
52 46
52 47
52 48
52 49
53 2
53 3
53 4
53 6
53 9
53 10
53 11
53 13
53 14
53 19
53 20
53 21
53 25
53 28
53 32
53 36
53 37
53 40
53 41
53 43
53 46
53 49
53 50
53 51
53 52
54 1
54 2
54 4
54 8
54 9
54 10
54 11
54 13
54 15
54 17
54 18
54 19
54 25
54 26
54 28
54 30
54 33
54 37
54 38
54 41
54 43
54 48
54 51
54 53
55 1
55 2
55 3
55 8
55 12
55 13
55 15
55 20
55 21
55 22
55 24
55 25
55 26
55 29
55 30
55 31
55 32
55 33
55 40
55 45
55 46
55 49
55 52
55 53
56 3
56 4
56 6
56 10
56 12
56 13
56 14
56 15
56 17
56 18
56 19
56 25
56 28
56 32
56 33
56 38
56 40
56 46
56 51
56 52
56 54
57 1
57 2
57 3
57 4
57 7
57 8
57 14
57 17
57 18
57 20
57 21
57 23
57 24
57 27
57 28
57 31
57 32
57 37
57 39
57 40
57 41
57 43
57 47
57 48
57 49
57 53
57 56
58 1
58 2
58 3
58 4
58 9
58 10
58 12
58 13
58 17
58 18
58 19
58 25
58 27
58 28
58 32
58 35
58 37
58 42
58 43
58 45
58 47
58 48
58 51
58 55
58 56
58 57
59 3
59 7
59 10
59 11
59 14
59 15
59 16
59 20
59 21
59 26
59 32
59 35
59 36
59 37
59 39
59 44
59 46
59 48
59 51
59 52
59 54
59 55
59 57
60 8
60 11
60 12
60 14
60 15
60 17
60 18
60 19
60 20
60 21
60 22
60 24
60 25
60 26
60 28
60 32
60 33
60 34
60 39
60 41
60 45
60 47
60 48
60 51
60 52
60 55
60 57
60 59
61 3
61 4
61 6
61 7
61 8
61 9
61 12
61 13
61 14
61 15
61 16
61 17
61 20
61 21
61 23
61 24
61 26
61 27
61 30
61 31
61 33
61 34
61 39
61 41
61 42
61 47
61 48
61 49
61 50
61 52
61 55
61 56
61 57
61 60
62 3
62 4
62 5
62 6
62 8
62 9
62 11
62 13
62 14
62 18
62 19
62 20
62 21
62 22
62 24
62 25
62 26
62 30
62 31
62 32
62 34
62 45
62 46
62 48
62 49
62 50
62 52
62 59
62 60
63 1
63 4
63 5
63 7
63 8
63 10
63 15
63 16
63 21
63 23
63 24
63 25
63 28
63 33
63 35
63 36
63 37
63 38
63 40
63 42
63 43
63 47
63 54
63 55
63 57
63 58
63 59
63 60
64 2
64 3
64 5
64 12
64 13
64 15
64 17
64 18
64 19
64 22
64 23
64 24
64 29
64 32
64 39
64 42
64 45
64 50
64 51
64 52
64 54
64 56
64 57
64 58
64 61
65 2
65 3
65 11
65 16
65 17
65 24
65 25
65 26
65 28
65 30
65 33
65 35
65 36
65 43
65 45
65 46
65 47
65 49
65 50
65 51
65 53
65 56
65 58
65 60
65 63
65 64
66 2
66 3
66 4
66 7
66 9
66 10
66 12
66 15
66 16
66 21
66 23
66 28
66 30
66 32
66 34
66 35
66 37
66 40
66 42
66 44
66 45
66 48
66 50
66 51
66 52
66 53
66 55
66 57
66 59
66 62
66 63
67 2
67 4
67 5
67 6
67 8
67 11
67 12
67 14
67 16
67 18
67 20
67 25
67 29
67 30
67 32
67 34
67 35
67 36
67 41
67 43
67 44
67 47
67 48
67 49
67 50
67 52
67 56
67 61
67 63
67 64
67 66
68 1
68 7
68 8
68 10
68 11
68 13
68 15
68 16
68 17
68 18
68 23
68 25
68 26
68 27
68 30
68 31
68 33
68 34
68 38
68 39
68 41
68 43
68 44
68 46
68 47
68 48
68 49
68 51
68 52
68 53
68 56
68 57
68 58
68 60
68 66
69 1
69 3
69 6
69 11
69 12
69 13
69 16
69 17
69 18
69 19
69 20
69 23
69 25
69 26
69 28
69 30
69 31
69 32
69 33
69 34
69 35
69 41
69 44
69 46
69 47
69 48
69 49
69 50
69 54
69 55
69 57
69 58
69 60
69 61
69 63
69 66
69 67
69 68
70 1
70 2
70 3
70 7
70 10
70 12
70 14
70 15
70 17
70 18
70 27
70 29
70 32
70 34
70 36
70 37
70 38
70 45
70 46
70 47
70 51
70 54
70 57
70 59
70 60
70 62
70 68
70 69
71 4
71 6
71 10
71 11
71 12
71 13
71 14
71 18
71 20
71 23
71 24
71 25
71 31
71 36
71 37
71 38
71 43
71 45
71 48
71 49
71 50
71 51
71 55
71 56
71 59
71 61
71 64
71 65
71 67
72 2
72 3
72 7
72 8
72 9
72 10
72 13
72 16
72 17
72 25
72 27
72 30
72 33
72 34
72 36
72 38
72 39
72 40
72 41
72 42
72 43
72 44
72 45
72 46
72 47
72 52
72 53
72 54
72 56
72 59
72 60
72 61
72 63
72 64
72 65
72 68
72 69
72 71
73 2
73 4
73 5
73 7
73 10
73 12
73 13
73 15
73 16
73 18
73 21
73 23
73 24
73 25
73 26
73 27
73 28
73 30
73 32
73 36
73 39
73 40
73 42
73 44
73 46
73 49
73 50
73 53
73 58
73 59
73 63
73 66
74 4
74 6
74 9
74 10
74 11
74 12
74 22
74 23
74 31
74 33
74 35
74 38
74 41
74 44
74 45
74 46
74 47
74 48
74 50
74 51
74 55
74 58
74 59
74 60
74 61
74 64
74 65
74 67
74 69
74 70
74 71
74 72
75 1
75 4
75 5
75 7
75 8
75 9
75 11
75 16
75 22
75 24
75 26
75 31
75 32
75 34
75 37
75 38
75 43
75 45
75 46
75 47
75 50
75 52
75 53
75 59
75 63
75 64
75 66
75 68
75 69
75 73
76 1
76 3
76 6
76 12
76 13
76 14
76 17
76 18
76 19
76 20
76 21
76 24
76 25
76 26
76 28
76 29
76 30
76 32
76 33
76 34
76 35
76 36
76 38
76 40
76 44
76 45
76 49
76 52
76 55
76 57
76 58
76 59
76 60
76 61
76 62
76 65
76 66
76 67
76 68
76 69
76 70
76 71
76 73
76 75
77 1
77 3
77 8
77 9
77 10
77 18
77 19
77 21
77 22
77 24
77 27
77 28
77 29
77 31
77 35
77 36
77 42
77 43
77 44
77 45
77 48
77 51
77 52
77 55
77 59
77 62
77 64
77 66
77 67
77 68
77 69
77 72
77 74
77 75
78 1
78 2
78 9
78 10
78 11
78 13
78 15
78 17
78 18
78 20
78 23
78 24
78 26
78 27
78 29
78 30
78 31
78 38
78 39
78 40
78 41
78 43
78 44
78 46
78 47
78 56
78 57
78 58
78 59
78 61
78 62
78 65
78 66
78 67
78 69
78 71
78 72
78 77
79 4
79 7
79 8
79 12
79 13
79 14
79 15
79 18
79 20
79 23
79 25
79 26
79 27
79 28
79 30
79 31
79 33
79 34
79 35
79 39
79 40
79 41
79 42
79 45
79 48
79 51
79 52
79 56
79 57
79 59
79 60
79 65
79 66
79 67
79 68
79 70
79 73
79 74
79 77
80 1
80 2
80 4
80 5
80 8
80 10
80 11
80 14
80 16
80 18
80 20
80 22
80 23
80 24
80 26
80 27
80 35
80 36
80 37
80 39
80 40
80 41
80 43
80 45
80 46
80 49
80 50
80 54
80 56
80 57
80 58
80 62
80 65
80 67
80 68
80 69
80 70
80 71
80 73
80 79
81 1
81 3
81 7
81 9
81 11
81 18
81 19
81 21
81 22
81 23
81 24
81 25
81 27
81 29
81 30
81 32
81 34
81 35
81 36
81 37
81 38
81 43
81 44
81 45
81 48
81 49
81 50
81 52
81 53
81 56
81 59
81 60
81 66
81 68
81 69
81 71
81 72
81 73
81 76
81 77
81 79
82 2
82 5
82 7
82 9
82 14
82 15
82 20
82 23
82 25
82 28
82 29
82 30
82 32
82 34
82 35
82 37
82 39
82 41
82 42
82 44
82 45
82 47
82 49
82 50
82 51
82 53
82 54
82 55
82 58
82 61
82 62
82 63
82 65
82 67
82 68
82 69
82 70
82 71
82 74
82 75
82 80
83 1
83 2
83 4
83 5
83 7
83 8
83 9
83 10
83 12
83 13
83 17
83 26
83 28
83 29
83 30
83 32
83 35
83 38
83 40
83 41
83 43
83 44
83 45
83 48
83 50
83 52
83 54
83 58
83 61
83 63
83 64
83 67
83 68
83 72
83 73
83 75
83 77
83 82
84 1
84 3
84 5
84 6
84 7
84 8
84 13
84 16
84 20
84 22
84 24
84 25
84 28
84 30
84 31
84 34
84 37
84 39
84 42
84 43
84 44
84 45
84 46
84 49
84 50
84 51
84 54
84 59
84 61
84 63
84 67
84 69
84 71
84 72
84 73
84 76
84 78
84 83
85 1
85 2
85 3
85 4
85 5
85 6
85 8
85 9
85 10
85 15
85 19
85 20
85 22
85 23
85 25
85 26
85 27
85 31
85 34
85 35
85 36
85 38
85 41
85 43
85 47
85 50
85 53
85 56
85 57
85 64
85 68
85 69
85 70
85 75
85 78
85 80
86 4
86 7
86 8
86 9
86 11
86 12
86 13
86 14
86 15
86 19
86 21
86 23
86 24
86 28
86 31
86 32
86 33
86 35
86 39
86 43
86 45
86 46
86 48
86 53
86 54
86 57
86 58
86 59
86 60
86 61
86 62
86 63
86 64
86 65
86 69
86 70
86 73
86 76
86 77
86 79
86 81
86 82
86 83
86 85
87 1
87 4
87 5
87 7
87 9
87 10
87 12
87 13
87 16
87 17
87 20
87 21
87 24
87 25
87 26
87 28
87 29
87 35
87 43
87 44
87 46
87 47
87 52
87 54
87 57
87 58
87 59
87 61
87 64
87 68
87 70
87 73
87 75
87 79
87 81
87 85
87 86
88 2
88 5
88 8
88 10
88 12
88 15
88 19
88 22
88 25
88 27
88 29
88 30
88 31
88 32
88 33
88 34
88 35
88 40
88 41
88 45
88 46
88 48
88 49
88 56
88 64
88 66
88 72
88 73
88 74
88 75
88 76
88 79
88 80
88 81
88 82
88 83
88 85
88 87
89 5
89 9
89 11
89 12
89 16
89 17
89 18
89 20
89 22
89 25
89 30
89 32
89 34
89 36
89 37
89 38
89 39
89 40
89 41
89 44
89 45
89 46
89 47
89 48
89 50
89 52
89 54
89 60
89 63
89 72
89 74
89 80
89 84
89 85
89 87
90 1
90 2
90 6
90 8
90 10
90 13
90 14
90 16
90 19
90 22
90 23
90 24
90 26
90 33
90 34
90 35
90 36
90 37
90 39
90 41
90 42
90 44
90 47
90 49
90 51
90 52
90 53
90 56
90 57
90 59
90 62
90 65
90 66
90 69
90 73
90 74
90 75
90 76
90 78
90 81
90 83
90 84
90 86
90 88
91 1
91 3
91 4
91 5
91 6
91 9
91 12
91 14
91 17
91 18
91 20
91 23
91 24
91 25
91 26
91 29
91 30
91 32
91 33
91 34
91 35
91 41
91 43
91 45
91 48
91 52
91 56
91 58
91 60
91 61
91 62
91 64
91 66
91 67
91 70
91 71
91 72
91 73
91 75
91 78
91 80
91 81
91 83
91 85
91 89
91 90
92 3
92 4
92 5
92 6
92 7
92 15
92 17
92 19
92 20
92 23
92 26
92 32
92 35
92 39
92 41
92 44
92 45
92 46
92 47
92 48
92 49
92 50
92 52
92 53
92 55
92 58
92 60
92 63
92 64
92 66
92 70
92 71
92 72
92 76
92 77
92 82
92 86
92 87
92 91
93 1
93 2
93 3
93 4
93 6
93 9
93 12
93 13
93 14
93 15
93 16
93 17
93 18
93 19
93 20
93 21
93 22
93 25
93 26
93 27
93 28
93 29
93 30
93 32
93 33
93 35
93 37
93 38
93 41
93 42
93 43
93 44
93 47
93 48
93 55
93 56
93 57
93 58
93 59
93 60
93 61
93 63
93 64
93 66
93 69
93 73
93 77
93 79
93 82
93 85
93 86
93 89
93 91
94 1
94 3
94 5
94 10
94 12
94 13
94 17
94 19
94 22
94 23
94 24
94 26
94 28
94 29
94 32
94 33
94 34
94 38
94 39
94 40
94 42
94 43
94 44
94 45
94 46
94 50
94 52
94 53
94 54
94 56
94 57
94 58
94 59
94 60
94 62
94 64
94 67
94 68
94 69
94 70
94 73
94 78
94 79
94 81
94 82
94 86
94 87
94 88
94 89
94 90
94 91
94 92
95 1
95 2
95 5
95 12
95 14
95 19
95 25
95 29
95 30
95 31
95 33
95 35
95 36
95 37
95 38
95 42
95 43
95 44
95 45
95 46
95 49
95 52
95 55
95 57
95 60
95 61
95 62
95 63
95 65
95 66
95 68
95 70
95 71
95 73
95 76
95 77
95 78
95 79
95 80
95 82
95 83
95 86
95 88
95 93
96 3
96 5
96 6
96 8
96 9
96 11
96 16
96 18
96 22
96 23
96 24
96 26
96 27
96 31
96 33
96 35
96 39
96 40
96 41
96 42
96 43
96 45
96 47
96 52
96 56
96 59
96 60
96 61
96 62
96 64
96 67
96 69
96 70
96 73
96 78
96 79
96 82
96 83
96 84
96 85
96 86
96 87
96 92
96 93
96 94
97 5
97 6
97 7
97 8
97 10
97 12
97 13
97 14
97 15
97 16
97 19
97 20
97 21
97 23
97 26
97 28
97 35
97 36
97 38
97 40
97 41
97 45
97 46
97 47
97 48
97 49
97 50
97 53
97 54
97 55
97 56
97 59
97 63
97 65
97 67
97 74
97 79
97 82
97 84
97 85
97 86
97 87
97 89
97 91
97 93
98 2
98 3
98 5
98 7
98 9
98 10
98 11
98 14
98 15
98 21
98 25
98 26
98 30
98 34
98 38
98 40
98 41
98 51
98 52
98 53
98 57
98 59
98 62
98 63
98 68
98 69
98 70
98 71
98 74
98 83
98 91
98 93
98 94
98 95
99 1
99 12
99 13
99 18
99 21
99 23
99 25
99 26
99 29
99 30
99 31
99 32
99 35
99 37
99 42
99 44
99 48
99 52
99 54
99 55
99 56
99 60
99 62
99 64
99 65
99 66
99 69
99 70
99 71
99 73
99 77
99 78
99 80
99 81
99 84
99 85
99 87
99 92
99 93
99 95
99 97
99 98
100 1
100 4
100 5
100 10
100 11
100 12
100 16
100 17
100 18
100 19
100 21
100 23
100 26
100 27
100 28
100 30
100 32
100 36
100 38
100 40
100 41
100 42
100 46
100 47
100 50
100 59
100 60
100 64
100 67
100 68
100 75
100 76
100 79
100 80
100 82
100 85
100 87
100 88
100 90
100 91
100 93
100 95
100 96
100 97
100 99
